ITEM = _(1..55);
knapsack_n = 3;
capacities = [323, 338, 325];
profits = [439, 144, 526, 318, 509, 482, 71, 562, 348, 87, 36, 187, 73, 28, 18, 94, 108, 510, 361, 482, 131, 27, 22, 38, 407, 48, 564, 40, 40, 18, 281, 48, 32, 47, 141, 32, 73, 337, 65, 23, 101, 160, 51, 51, 24, 150, 15, 33, 9, 242, 37, 33, 61, 22, 366];
weights = [41, 30, 65, 87, 55, 39, 31, 67, 40, 35, 5, 76, 32, 3, 7, 22, 34, 54, 78, 80, 20, 4, 4, 5, 67, 19, 88, 6, 10, 8, 74, 26, 11, 17, 30, 5, 20, 81, 20, 11, 33, 14, 16, 18, 7, 21, 12, 6, 11, 77, 12, 11, 32, 12, 67];
